c File: flat50_3_0.col
c
c SOURCE: Joseph Culberson (joe@cs.ualberta.ca)
c DESCRIPTION: Quasi-random coloring problem
c              generated with flatness = 0
c                             probability = 0.139
c                             known coloring = 3
c                             random seed = 1381
c              Creation Date:  Tue Jun  9 12:07:58 1998
c Maximum degree = 7 Minimum degree = 1
c p edge 50 115
c cnf created by edge2cnf
p cnf 150 545
-1 -2 0
-1 -3 0
-2 -3 0
1 2 3 0
-4 -5 0
-4 -6 0
-5 -6 0
4 5 6 0
-7 -8 0
-7 -9 0
-8 -9 0
7 8 9 0
-10 -11 0
-10 -12 0
-11 -12 0
10 11 12 0
-13 -14 0
-13 -15 0
-14 -15 0
13 14 15 0
-16 -17 0
-16 -18 0
-17 -18 0
16 17 18 0
-19 -20 0
-19 -21 0
-20 -21 0
19 20 21 0
-22 -23 0
-22 -24 0
-23 -24 0
22 23 24 0
-25 -26 0
-25 -27 0
-26 -27 0
25 26 27 0
-28 -29 0
-28 -30 0
-29 -30 0
28 29 30 0
-31 -32 0
-31 -33 0
-32 -33 0
31 32 33 0
-34 -35 0
-34 -36 0
-35 -36 0
34 35 36 0
-37 -38 0
-37 -39 0
-38 -39 0
37 38 39 0
-40 -41 0
-40 -42 0
-41 -42 0
40 41 42 0
-43 -44 0
-43 -45 0
-44 -45 0
43 44 45 0
-46 -47 0
-46 -48 0
-47 -48 0
46 47 48 0
-49 -50 0
-49 -51 0
-50 -51 0
49 50 51 0
-52 -53 0
-52 -54 0
-53 -54 0
52 53 54 0
-55 -56 0
-55 -57 0
-56 -57 0
55 56 57 0
-58 -59 0
-58 -60 0
-59 -60 0
58 59 60 0
-61 -62 0
-61 -63 0
-62 -63 0
61 62 63 0
-64 -65 0
-64 -66 0
-65 -66 0
64 65 66 0
-67 -68 0
-67 -69 0
-68 -69 0
67 68 69 0
-70 -71 0
-70 -72 0
-71 -72 0
70 71 72 0
-73 -74 0
-73 -75 0
-74 -75 0
73 74 75 0
-76 -77 0
-76 -78 0
-77 -78 0
76 77 78 0
-79 -80 0
-79 -81 0
-80 -81 0
79 80 81 0
-82 -83 0
-82 -84 0
-83 -84 0
82 83 84 0
-85 -86 0
-85 -87 0
-86 -87 0
85 86 87 0
-88 -89 0
-88 -90 0
-89 -90 0
88 89 90 0
-91 -92 0
-91 -93 0
-92 -93 0
91 92 93 0
-94 -95 0
-94 -96 0
-95 -96 0
94 95 96 0
-97 -98 0
-97 -99 0
-98 -99 0
97 98 99 0
-100 -101 0
-100 -102 0
-101 -102 0
100 101 102 0
-103 -104 0
-103 -105 0
-104 -105 0
103 104 105 0
-106 -107 0
-106 -108 0
-107 -108 0
106 107 108 0
-109 -110 0
-109 -111 0
-110 -111 0
109 110 111 0
-112 -113 0
-112 -114 0
-113 -114 0
112 113 114 0
-115 -116 0
-115 -117 0
-116 -117 0
115 116 117 0
-118 -119 0
-118 -120 0
-119 -120 0
118 119 120 0
-121 -122 0
-121 -123 0
-122 -123 0
121 122 123 0
-124 -125 0
-124 -126 0
-125 -126 0
124 125 126 0
-127 -128 0
-127 -129 0
-128 -129 0
127 128 129 0
-130 -131 0
-130 -132 0
-131 -132 0
130 131 132 0
-133 -134 0
-133 -135 0
-134 -135 0
133 134 135 0
-136 -137 0
-136 -138 0
-137 -138 0
136 137 138 0
-139 -140 0
-139 -141 0
-140 -141 0
139 140 141 0
-142 -143 0
-142 -144 0
-143 -144 0
142 143 144 0
-145 -146 0
-145 -147 0
-146 -147 0
145 146 147 0
-148 -149 0
-148 -150 0
-149 -150 0
148 149 150 0
-76 -1 0
-77 -2 0
-78 -3 0
-91 -1 0
-92 -2 0
-93 -3 0
-97 -1 0
-98 -2 0
-99 -3 0
-106 -1 0
-107 -2 0
-108 -3 0
-115 -1 0
-116 -2 0
-117 -3 0
-145 -1 0
-146 -2 0
-147 -3 0
-112 -4 0
-113 -5 0
-114 -6 0
-139 -4 0
-140 -5 0
-141 -6 0
-52 -7 0
-53 -8 0
-54 -9 0
-73 -7 0
-74 -8 0
-75 -9 0
-136 -7 0
-137 -8 0
-138 -9 0
-139 -7 0
-140 -8 0
-141 -9 0
-55 -10 0
-56 -11 0
-57 -12 0
-64 -10 0
-65 -11 0
-66 -12 0
-88 -10 0
-89 -11 0
-90 -12 0
-91 -10 0
-92 -11 0
-93 -12 0
-127 -10 0
-128 -11 0
-129 -12 0
-133 -10 0
-134 -11 0
-135 -12 0
-52 -13 0
-53 -14 0
-54 -15 0
-112 -13 0
-113 -14 0
-114 -15 0
-121 -13 0
-122 -14 0
-123 -15 0
-136 -13 0
-137 -14 0
-138 -15 0
-55 -16 0
-56 -17 0
-57 -18 0
-61 -16 0
-62 -17 0
-63 -18 0
-79 -16 0
-80 -17 0
-81 -18 0
-100 -16 0
-101 -17 0
-102 -18 0
-109 -16 0
-110 -17 0
-111 -18 0
-130 -16 0
-131 -17 0
-132 -18 0
-148 -16 0
-149 -17 0
-150 -18 0
-94 -19 0
-95 -20 0
-96 -21 0
-97 -19 0
-98 -20 0
-99 -21 0
-133 -19 0
-134 -20 0
-135 -21 0
-142 -19 0
-143 -20 0
-144 -21 0
-145 -19 0
-146 -20 0
-147 -21 0
-73 -22 0
-74 -23 0
-75 -24 0
-100 -22 0
-101 -23 0
-102 -24 0
-112 -22 0
-113 -23 0
-114 -24 0
-52 -25 0
-53 -26 0
-54 -27 0
-118 -25 0
-119 -26 0
-120 -27 0
-130 -25 0
-131 -26 0
-132 -27 0
-145 -25 0
-146 -26 0
-147 -27 0
-148 -25 0
-149 -26 0
-150 -27 0
-58 -28 0
-59 -29 0
-60 -30 0
-61 -28 0
-62 -29 0
-63 -30 0
-73 -28 0
-74 -29 0
-75 -30 0
-97 -28 0
-98 -29 0
-99 -30 0
-127 -28 0
-128 -29 0
-129 -30 0
-139 -28 0
-140 -29 0
-141 -30 0
-64 -31 0
-65 -32 0
-66 -33 0
-94 -31 0
-95 -32 0
-96 -33 0
-97 -31 0
-98 -32 0
-99 -33 0
-103 -31 0
-104 -32 0
-105 -33 0
-121 -31 0
-122 -32 0
-123 -33 0
-142 -31 0
-143 -32 0
-144 -33 0
-55 -34 0
-56 -35 0
-57 -36 0
-67 -34 0
-68 -35 0
-69 -36 0
-91 -34 0
-92 -35 0
-93 -36 0
-94 -34 0
-95 -35 0
-96 -36 0
-136 -34 0
-137 -35 0
-138 -36 0
-148 -34 0
-149 -35 0
-150 -36 0
-67 -37 0
-68 -38 0
-69 -39 0
-91 -37 0
-92 -38 0
-93 -39 0
-112 -37 0
-113 -38 0
-114 -39 0
-133 -37 0
-134 -38 0
-135 -39 0
-52 -40 0
-53 -41 0
-54 -42 0
-61 -40 0
-62 -41 0
-63 -42 0
-58 -43 0
-59 -44 0
-60 -45 0
-70 -43 0
-71 -44 0
-72 -45 0
-79 -43 0
-80 -44 0
-81 -45 0
-82 -43 0
-83 -44 0
-84 -45 0
-103 -43 0
-104 -44 0
-105 -45 0
-85 -46 0
-86 -47 0
-87 -48 0
-100 -46 0
-101 -47 0
-102 -48 0
-124 -46 0
-125 -47 0
-126 -48 0
-130 -46 0
-131 -47 0
-132 -48 0
-148 -46 0
-149 -47 0
-150 -48 0
-124 -49 0
-125 -50 0
-126 -51 0
-109 -52 0
-110 -53 0
-111 -54 0
-118 -52 0
-119 -53 0
-120 -54 0
-139 -52 0
-140 -53 0
-141 -54 0
-121 -55 0
-122 -56 0
-123 -57 0
-124 -55 0
-125 -56 0
-126 -57 0
-133 -55 0
-134 -56 0
-135 -57 0
-145 -55 0
-146 -56 0
-147 -57 0
-124 -58 0
-125 -59 0
-126 -60 0
-109 -61 0
-110 -62 0
-111 -63 0
-109 -64 0
-110 -65 0
-111 -66 0
-115 -64 0
-116 -65 0
-117 -66 0
-121 -64 0
-122 -65 0
-123 -66 0
-127 -64 0
-128 -65 0
-129 -66 0
-112 -67 0
-113 -68 0
-114 -69 0
-136 -67 0
-137 -68 0
-138 -69 0
-148 -67 0
-149 -68 0
-150 -69 0
-103 -70 0
-104 -71 0
-105 -72 0
-124 -70 0
-125 -71 0
-126 -72 0
-148 -70 0
-149 -71 0
-150 -72 0
-103 -73 0
-104 -74 0
-105 -75 0
-112 -73 0
-113 -74 0
-114 -75 0
-133 -76 0
-134 -77 0
-135 -78 0
-139 -76 0
-140 -77 0
-141 -78 0
-142 -76 0
-143 -77 0
-144 -78 0
-103 -79 0
-104 -80 0
-105 -81 0
-133 -79 0
-134 -80 0
-135 -81 0
-109 -82 0
-110 -83 0
-111 -84 0
-136 -82 0
-137 -83 0
-138 -84 0
-127 -85 0
-128 -86 0
-129 -87 0
-130 -85 0
-131 -86 0
-132 -87 0
-127 -88 0
-128 -89 0
-129 -90 0
-136 -88 0
-137 -89 0
-138 -90 0
-145 -88 0
-146 -89 0
-147 -90 0
-145 -91 0
-146 -92 0
-147 -93 0
-130 -94 0
-131 -95 0
-132 -96 0
-145 -94 0
-146 -95 0
-147 -96 0
-106 -97 0
-107 -98 0
-108 -99 0
-115 -100 0
-116 -101 0
-117 -102 0
